solution status: time limit reached
objective value:                     25.9999999489025
shell_j_$_137                                       1 	(obj:0)
shell_j_$_80                                        1 	(obj:0)
shell_j_$_101__6                                    1 	(obj:0)
shell_j_$_78                                        1 	(obj:0)
shell_j_$_81                                        1 	(obj:0)
shell_j_thing.thing.chamber[0].thingy.r1c__6                    1 	(obj:0)
shell_j_$_70                                        1 	(obj:0)
shell_j_$_21                                        1 	(obj:0)
shell_j_$_147__6                                    1 	(obj:0)
shell_i_$_8__6                                      1 	(obj:0)
shell_j_$_100__6                                    1 	(obj:0)
shell_j_$_143__6                                    1 	(obj:0)
shell_j_$_12__6                                     1 	(obj:0)
shell_j_$_122__6                                    1 	(obj:0)
shell_j_$_76                                        1 	(obj:0)
shell_j_$_2__6                                      1 	(obj:0)
shell_i_$_148__6                                    1 	(obj:0)
shell_j_$_120__6                                    1 	(obj:0)
shell_j_$_125__6                                    1 	(obj:0)
shell_j_$_22__6                                     1 	(obj:0)
shell_j_$_11                                        1 	(obj:0)
shell_j_$_84__6                                     1 	(obj:0)
shell_i_$_88__6                                     1 	(obj:0)
shell_i_$_96__6                                     1 	(obj:0)
shell_i_$_25                                        1 	(obj:0)
shell_j_$_93__6                                     1 	(obj:0)
shell_j_$_6                                         1 	(obj:0)
shell_i_$_115                                       1 	(obj:0)
shell_j_$_17__6                                     1 	(obj:0)
shell_j_$_18__6                                     1 	(obj:0)
shell_j_$_72                                        1 	(obj:0)
shell_j_$_19__6                                     1 	(obj:0)
shell_j_$_130                                       1 	(obj:0)
shell_j_$_20                                        1 	(obj:0)
shell_j_$_7__6                                      1 	(obj:0)
shell_j_$_104__6                                    1 	(obj:0)
shell_i_$_23                                        1 	(obj:0)
shell_j_$_106                                       1 	(obj:0)
shell_j_$_4__6                                      1 	(obj:0)
shell_i_$_10                                        1 	(obj:0)
shell_i_$_138                                       1 	(obj:0)
shell_j_thing.thing.chamber[1].thingy.r4c__6                    1 	(obj:0)
shell_j_$_26__6                                     1 	(obj:0)
shell_j_$_3__6                                      1 	(obj:0)
shell_j_$_98__6                                     1 	(obj:0)
shell_j_$_123__6                                    1 	(obj:0)
shell_i_$_102__6                                    1 	(obj:0)
shell_i_thing.thing.chamber[2].thingy.v4__6                    1 	(obj:0)
shell_j_$_5__6                                      1 	(obj:0)
shell_j_$_134                                       1 	(obj:0)
shell_j_$_86__6                                     1 	(obj:0)
shell_i_$_119                                       1 	(obj:0)
shell_j_thing.thing.chamber[1].thingy.r2c__6                    1 	(obj:0)
shell_j_$_9__6                                      1 	(obj:0)
shell_j_$_16__6                                     1 	(obj:0)
shell_i_$_111                                       1 	(obj:0)
$_88__6_z                                          15 	(obj:0)
$_78_z                                             14 	(obj:0)
$_8__6_x                                           -8 	(obj:0)
$_96__6_x                                          -8 	(obj:0)
$_96__6_y                                           4 	(obj:0)
$_96__6_z                                          16 	(obj:0)
$_8__6_y                                            7 	(obj:0)
$_8__6_z                                           23 	(obj:0)
$_25_x                                             -8 	(obj:0)
$_25_y                               6.99999999979963 	(obj:0)
$_25_z                                             21 	(obj:0)
$_80_y                                              8 	(obj:0)
$_80_z                                             12 	(obj:0)
$_93__6_x                                          -2 	(obj:0)
$_93__6_y                                           8 	(obj:0)
$_93__6_z                                          18 	(obj:0)
$_100__6_x                                         -2 	(obj:0)
$_100__6_y                                          8 	(obj:0)
$_6_x                                              -5 	(obj:0)
$_6_y                                               8 	(obj:0)
$_6_z                                              16 	(obj:0)
$_100__6_z                                         20 	(obj:0)
$_81_x                              -6.99999999979962 	(obj:0)
$_115_x                                            -8 	(obj:0)
$_115_y                                             6 	(obj:0)
$_115_z                                            16 	(obj:0)
$_81_y                                              8 	(obj:0)
$_143__6_x                                         -8 	(obj:0)
$_17__6_x                                          -4 	(obj:0)
$_17__6_y                                           8 	(obj:0)
$_17__6_z                                          25 	(obj:0)
$_143__6_y                                          8 	(obj:0)
$_143__6_z                                         24 	(obj:0)
$_18__6_x                                          -3 	(obj:0)
$_18__6_y                                           8 	(obj:0)
$_18__6_z                                          25 	(obj:0)
$_81_z                                             13 	(obj:0)
$_137_z                                            18 	(obj:0)
$_72_x                                             -8 	(obj:0)
$_72_y                                              8 	(obj:0)
$_72_z                                             12 	(obj:0)
$_12__6_x                                          -8 	(obj:0)
$_12__6_y                                           8 	(obj:0)
$_19__6_x                                          -2 	(obj:0)
$_19__6_y                                           8 	(obj:0)
$_19__6_z                                          25 	(obj:0)
$_12__6_z                                          20 	(obj:0)
$_137_x                                            -8 	(obj:0)
$_130_x                                            -8 	(obj:0)
$_130_y                                             8 	(obj:0)
$_130_z                                            19 	(obj:0)
thing.thing.chamber[0].thingy.r1c__6_x    -6.00000001222402 	(obj:0)
$_122__6_x                          -5.00000001390501 	(obj:0)
$_20_x                                             -7 	(obj:0)
$_20_y                                              8 	(obj:0)
$_20_z                               16.9999999906539 	(obj:0)
$_122__6_y                                          8 	(obj:0)
$_122__6_z                                         25 	(obj:0)
$_7__6_x                                           -2 	(obj:0)
$_7__6_y                                            8 	(obj:0)
$_7__6_z                                           19 	(obj:0)
thing.thing.chamber[0].thingy.r1c__6_y                    8 	(obj:0)
thing.thing.chamber[0].thingy.r1c__6_z                   12 	(obj:0)
$_104__6_x                                         -4 	(obj:0)
$_104__6_y                                          8 	(obj:0)
$_104__6_z                                         14 	(obj:0)
$_76_x                              -6.99999997990374 	(obj:0)
$_76_y                                              8 	(obj:0)
$_23_x                                             -8 	(obj:0)
$_23_y                                              2 	(obj:0)
$_23_z                                             16 	(obj:0)
$_76_z                                             15 	(obj:0)
$_101__6_x                          -6.99999999761721 	(obj:0)
$_106_x                                            -8 	(obj:0)
$_106_y                                             8 	(obj:0)
$_106_z                                            17 	(obj:0)
$_101__6_y                                          8 	(obj:0)
$_2__6_x                                           -1 	(obj:0)
$_4__6_x                            -6.00000000748726 	(obj:0)
$_4__6_y                                            8 	(obj:0)
$_4__6_z                                           25 	(obj:0)
$_2__6_y                                            8 	(obj:0)
$_2__6_z                                           25 	(obj:0)
$_10_x                                             -8 	(obj:0)
$_10_y                                              8 	(obj:0)
$_10_z                                             16 	(obj:0)
$_70_x                                             -7 	(obj:0)
$_70_y                                              8 	(obj:0)
$_138_x                                            -8 	(obj:0)
$_138_y                                             6 	(obj:0)
$_138_z                                            18 	(obj:0)
$_148__6_x                                         -8 	(obj:0)
thing.thing.chamber[1].thingy.r4c__6_x                   -4 	(obj:0)
thing.thing.chamber[1].thingy.r4c__6_y                    8 	(obj:0)
thing.thing.chamber[1].thingy.r4c__6_z                   17 	(obj:0)
$_148__6_z                                         25 	(obj:0)
$_70_z                               15.9999999767506 	(obj:0)
$_26__6_x                                          -8 	(obj:0)
$_26__6_y                                           8 	(obj:0)
$_26__6_z                                          11 	(obj:0)
$_101__6_z                                         20 	(obj:0)
$_120__6_x                                         -8 	(obj:0)
$_3__6_x                                           -7 	(obj:0)
$_3__6_y                                            8 	(obj:0)
$_3__6_z                                           25 	(obj:0)
$_120__6_y                                          8 	(obj:0)
$_120__6_z                                         21 	(obj:0)
$_98__6_x                                           2 	(obj:0)
$_98__6_y                                           8 	(obj:0)
$_98__6_z                                          20 	(obj:0)
$_137_y                                             8 	(obj:0)
$_21_x                                             -4 	(obj:0)
$_123__6_x                                         -2 	(obj:0)
$_123__6_y                                          8 	(obj:0)
$_123__6_z                                         21 	(obj:0)
$_125__6_x                                         -8 	(obj:0)
$_125__6_y                                          8 	(obj:0)
$_102__6_x                                         -8 	(obj:0)
$_102__6_y                                          6 	(obj:0)
$_102__6_z                                         17 	(obj:0)
$_125__6_z                                         15 	(obj:0)
$_21_y                                              8 	(obj:0)
thing.thing.chamber[2].thingy.v4__6_x                   -8 	(obj:0)
thing.thing.chamber[2].thingy.v4__6_y                    4 	(obj:0)
thing.thing.chamber[2].thingy.v4__6_z                   18 	(obj:0)
$_21_z                                             18 	(obj:0)
$_22__6_x                           -1.99999999374416 	(obj:0)
$_5__6_y                                            8 	(obj:0)
$_5__6_z                                           18 	(obj:0)
$_22__6_y                                           8 	(obj:0)
$_22__6_z                                          17 	(obj:0)
$_134_x                             -6.99999997669634 	(obj:0)
$_134_y                                             8 	(obj:0)
$_134_z                              19.0000000185355 	(obj:0)
$_80_x                              -7.00000000659323 	(obj:0)
$_78_x                                             -8 	(obj:0)
$_86__6_x                                          -7 	(obj:0)
$_86__6_y                                           8 	(obj:0)
$_86__6_z                                          14 	(obj:0)
$_11_x                                             -3 	(obj:0)
$_11_y                                              8 	(obj:0)
$_119_x                                            -8 	(obj:0)
$_119_y                                             7 	(obj:0)
$_119_z                                            15 	(obj:0)
$_11_z                                             15 	(obj:0)
$_147__6_x                                         -8 	(obj:0)
thing.thing.chamber[1].thingy.r2c__6_x    -7.00000000031096 	(obj:0)
thing.thing.chamber[1].thingy.r2c__6_y                    8 	(obj:0)
thing.thing.chamber[1].thingy.r2c__6_z                   18 	(obj:0)
$_147__6_y                                          8 	(obj:0)
$_84__6_x                                          -6 	(obj:0)
$_9__6_x                                           -8 	(obj:0)
$_9__6_y                                            8 	(obj:0)
$_9__6_z                                            9 	(obj:0)
$_84__6_y                                           8 	(obj:0)
$_84__6_z                                          14 	(obj:0)
$_16__6_x                                          -5 	(obj:0)
$_16__6_y                                           8 	(obj:0)
$_16__6_z                            24.0000000075055 	(obj:0)
$_147__6_z                                         25 	(obj:0)
$_78_y                                              8 	(obj:0)
$_111_x                                            -8 	(obj:0)
$_111_y                                             8 	(obj:0)
$_111_z                                            13 	(obj:0)
$_88__6_x                                          -8 	(obj:0)
$_88__6_y                            5.99999999725836 	(obj:0)
x284                                                2 	(obj:1)
x287                                0.999999996349308 	(obj:1)
x296                                0.999999999849662 	(obj:1)
x299                                 1.99999998214519 	(obj:1)
x302                                0.999999998738418 	(obj:1)
x323                                  2.9999999804642 	(obj:1)
x326                                 1.00000001538803 	(obj:1)
x341                             -2.4894067895785e-09 	(obj:1)
x351                                 1.99999999850151 	(obj:1)
x357                                0.999999999849658 	(obj:1)
x369                                                2 	(obj:1)
x401                                 1.99999999018434 	(obj:1)
x416                             -1.26158180519885e-09 	(obj:1)
x418                                 1.99999999597767 	(obj:1)
x437                                 1.00000001717365 	(obj:1)
x439                                 1.00000001290473 	(obj:1)
x440                                0.999999971065547 	(obj:1)
x443                                 1.00000002111596 	(obj:1)
x445                             -4.6713415893852e-09 	(obj:1)
x448                                0.999999975833689 	(obj:1)
x455                                 1.00000000288922 	(obj:1)
x463                             -1.10593668082113e-09 	(obj:1)
